\Problem name: compact

Minimize
OBJROW: C
Subject To
ord(0,1):  x(0,1) - x(0,2) >= 7
ord(0,2):  x(0,0) - x(0,1) >= 4
ord(1,1):  - x(1,0) + x(1,1) >= 8
ord(1,2):  - x(1,1) + x(1,2) >= 7
ord(2,1):  - x(2,0) + x(2,1) >= 3
ord(2,2):  - x(2,1) + x(2,2) >= 3
ord(3,1):  - x(3,0) + x(3,2) >= 4
ord(3,2):  x(3,1) - x(3,2) >= 5
triangle2(0,1,0):  y(0,1,0) + y(1,0,0) = 1
triangle2(0,1,1):  y(0,1,1) + y(1,0,1) = 1
triangle2(0,1,2):  y(0,1,2) + y(1,0,2) = 1
triangle2(0,2,0):  y(0,2,0) + y(2,0,0) = 1
triangle2(0,2,1):  y(0,2,1) + y(2,0,1) = 1
triangle2(0,2,2):  y(0,2,2) + y(2,0,2) = 1
triangle2(0,3,0):  y(0,3,0) + y(3,0,0) = 1
triangle2(0,3,1):  y(0,3,1) + y(3,0,1) = 1
triangle2(0,3,2):  y(0,3,2) + y(3,0,2) = 1
triangle2(1,2,0):  y(1,2,0) + y(2,1,0) = 1
triangle2(1,2,1):  y(1,2,1) + y(2,1,1) = 1
triangle2(1,2,2):  y(1,2,2) + y(2,1,2) = 1
triangle2(1,3,0):  y(1,3,0) + y(3,1,0) = 1
triangle2(1,3,1):  y(1,3,1) + y(3,1,1) = 1
triangle2(1,3,2):  y(1,3,2) + y(3,1,2) = 1
triangle2(2,3,0):  y(2,3,0) + y(3,2,0) = 1
triangle2(2,3,1):  y(2,3,1) + y(3,2,1) = 1
triangle2(2,3,2):  y(2,3,2) + y(3,2,2) = 1
MCLinV(0,1,0):  x(0,0) - v(0,1,0) - x(1,0) = 8
MCLinV(1,0,0):  - x(0,0) - v(1,0,0) + x(1,0) = 4
MCLin1(0,1,0):  u(0,1,0) >= -0
MCLin2(0,1,0):  -33 y(1,0,0) - u(0,1,0) <= -0
MCLin3(0,1,0):  42 y(1,0,0) + v(0,1,0) - u(0,1,0) <= 42
MCLin4(0,1,0):  42 y(1,0,0) - u(0,1,0) >= -0
MCLin5(0,1,0):  -33 y(1,0,0) + v(0,1,0) - u(0,1,0) >= -33
MCLin6(1,0,0):  u(1,0,0) >= -0
MCLin7(1,0,0):  -54 y(0,1,0) - u(1,0,0) <= -0
MCLin8(1,0,0):  21 y(0,1,0) + v(1,0,0) - u(1,0,0) <= 21
MCLin9(1,0,0):  21 y(0,1,0) - u(1,0,0) >= -0
MCLin10(1,0,0):  -54 y(0,1,0) + v(1,0,0) - u(1,0,0) >= -54
MCLinV(0,1,1):  x(0,1) - v(0,1,1) - x(1,1) = 7
MCLinV(1,0,1):  - x(0,1) - v(1,0,1) + x(1,1) = 4
MCLin1(0,1,1):  u(0,1,1) >= -0
MCLin2(0,1,1):  -44 y(1,0,1) - u(0,1,1) <= -0
MCLin3(0,1,1):  31 y(1,0,1) + v(0,1,1) - u(0,1,1) <= 31
MCLin4(0,1,1):  31 y(1,0,1) - u(0,1,1) >= -0
MCLin5(0,1,1):  -44 y(1,0,1) + v(0,1,1) - u(0,1,1) >= -44
MCLin6(1,0,1):  u(1,0,1) >= -0
MCLin7(1,0,1):  -42 y(0,1,1) - u(1,0,1) <= -0
MCLin8(1,0,1):  33 y(0,1,1) + v(1,0,1) - u(1,0,1) <= 33
MCLin9(1,0,1):  33 y(0,1,1) - u(1,0,1) >= -0
MCLin10(1,0,1):  -42 y(0,1,1) + v(1,0,1) - u(1,0,1) >= -42
MCLinV(0,1,2):  x(0,2) - v(0,1,2) - x(1,2) = 3
MCLinV(1,0,2):  - x(0,2) - v(1,0,2) + x(1,2) = 7
MCLin1(0,1,2):  u(0,1,2) >= -0
MCLin2(0,1,2):  -54 y(1,0,2) - u(0,1,2) <= -0
MCLin3(0,1,2):  21 y(1,0,2) + v(0,1,2) - u(0,1,2) <= 21
MCLin4(0,1,2):  21 y(1,0,2) - u(0,1,2) >= -0
MCLin5(0,1,2):  -54 y(1,0,2) + v(0,1,2) - u(0,1,2) >= -54
MCLin6(1,0,2):  u(1,0,2) >= -0
MCLin7(1,0,2):  -31 y(0,1,2) - u(1,0,2) <= -0
MCLin8(1,0,2):  44 y(0,1,2) + v(1,0,2) - u(1,0,2) <= 44
MCLin9(1,0,2):  44 y(0,1,2) - u(1,0,2) >= -0
MCLin10(1,0,2):  -31 y(0,1,2) + v(1,0,2) - u(1,0,2) >= -31
MCLinV(0,2,0):  x(0,0) - v(0,2,0) - x(2,0) = 3
MCLinV(2,0,0):  - x(0,0) - v(2,0,0) + x(2,0) = 4
MCLin1(0,2,0):  u(0,2,0) >= -0
MCLin2(0,2,0):  -37 y(2,0,0) - u(0,2,0) <= -0
MCLin3(0,2,0):  47 y(2,0,0) + v(0,2,0) - u(0,2,0) <= 47
MCLin4(0,2,0):  47 y(2,0,0) - u(0,2,0) >= -0
MCLin5(0,2,0):  -37 y(2,0,0) + v(0,2,0) - u(0,2,0) >= -37
MCLin6(2,0,0):  u(2,0,0) >= -0
MCLin7(2,0,0):  -54 y(0,2,0) - u(2,0,0) <= -0
MCLin8(2,0,0):  30 y(0,2,0) + v(2,0,0) - u(2,0,0) <= 30
MCLin9(2,0,0):  30 y(0,2,0) - u(2,0,0) >= -0
MCLin10(2,0,0):  -54 y(0,2,0) + v(2,0,0) - u(2,0,0) >= -54
MCLinV(0,2,1):  x(0,1) - v(0,2,1) - x(2,1) = 3
MCLinV(2,0,1):  - x(0,1) - v(2,0,1) + x(2,1) = 4
MCLin1(0,2,1):  u(0,2,1) >= -0
MCLin2(0,2,1):  -44 y(2,0,1) - u(0,2,1) <= -0
MCLin3(0,2,1):  40 y(2,0,1) + v(0,2,1) - u(0,2,1) <= 40
MCLin4(0,2,1):  40 y(2,0,1) - u(0,2,1) >= -0
MCLin5(0,2,1):  -44 y(2,0,1) + v(0,2,1) - u(0,2,1) >= -44
MCLin6(2,0,1):  u(2,0,1) >= -0
MCLin7(2,0,1):  -47 y(0,2,1) - u(2,0,1) <= -0
MCLin8(2,0,1):  37 y(0,2,1) + v(2,0,1) - u(2,0,1) <= 37
MCLin9(2,0,1):  37 y(0,2,1) - u(2,0,1) >= -0
MCLin10(2,0,1):  -47 y(0,2,1) + v(2,0,1) - u(2,0,1) >= -47
MCLinV(0,2,2):  x(0,2) - v(0,2,2) - x(2,2) = 3
MCLinV(2,0,2):  - x(0,2) - v(2,0,2) + x(2,2) = 7
MCLin1(0,2,2):  u(0,2,2) >= -0
MCLin2(0,2,2):  -54 y(2,0,2) - u(0,2,2) <= -0
MCLin3(0,2,2):  30 y(2,0,2) + v(0,2,2) - u(0,2,2) <= 30
MCLin4(0,2,2):  30 y(2,0,2) - u(0,2,2) >= -0
MCLin5(0,2,2):  -54 y(2,0,2) + v(0,2,2) - u(0,2,2) >= -54
MCLin6(2,0,2):  u(2,0,2) >= -0
MCLin7(2,0,2):  -40 y(0,2,2) - u(2,0,2) <= -0
MCLin8(2,0,2):  44 y(0,2,2) + v(2,0,2) - u(2,0,2) <= 44
MCLin9(2,0,2):  44 y(0,2,2) - u(2,0,2) >= -0
MCLin10(2,0,2):  -40 y(0,2,2) + v(2,0,2) - u(2,0,2) >= -40
MCLinV(0,3,0):  x(0,0) - v(0,3,0) - x(3,0) = 4
MCLinV(3,0,0):  - x(0,0) - v(3,0,0) + x(3,0) = 4
MCLin1(0,3,0):  u(0,3,0) >= -0
MCLin2(0,3,0):  -35 y(3,0,0) - u(0,3,0) <= -0
MCLin3(0,3,0):  46 y(3,0,0) + v(0,3,0) - u(0,3,0) <= 46
MCLin4(0,3,0):  46 y(3,0,0) - u(0,3,0) >= -0
MCLin5(0,3,0):  -35 y(3,0,0) + v(0,3,0) - u(0,3,0) >= -35
MCLin6(3,0,0):  u(3,0,0) >= -0
MCLin7(3,0,0):  -54 y(0,3,0) - u(3,0,0) <= -0
MCLin8(3,0,0):  27 y(0,3,0) + v(3,0,0) - u(3,0,0) <= 27
MCLin9(3,0,0):  27 y(0,3,0) - u(3,0,0) >= -0
MCLin10(3,0,0):  -54 y(0,3,0) + v(3,0,0) - u(3,0,0) >= -54
MCLinV(0,3,1):  x(0,1) - v(0,3,1) - x(3,1) = 3
MCLinV(3,0,1):  - x(0,1) - v(3,0,1) + x(3,1) = 4
MCLin1(0,3,1):  u(0,3,1) >= -0
MCLin2(0,3,1):  -47 y(3,0,1) - u(0,3,1) <= -0
MCLin3(0,3,1):  34 y(3,0,1) + v(0,3,1) - u(0,3,1) <= 34
MCLin4(0,3,1):  34 y(3,0,1) - u(0,3,1) >= -0
MCLin5(0,3,1):  -47 y(3,0,1) + v(0,3,1) - u(0,3,1) >= -47
MCLin6(3,0,1):  u(3,0,1) >= -0
MCLin7(3,0,1):  -41 y(0,3,1) - u(3,0,1) <= -0
MCLin8(3,0,1):  40 y(0,3,1) + v(3,0,1) - u(3,0,1) <= 40
MCLin9(3,0,1):  40 y(0,3,1) - u(3,0,1) >= -0
MCLin10(3,0,1):  -41 y(0,3,1) + v(3,0,1) - u(3,0,1) >= -41
MCLinV(0,3,2):  x(0,2) - v(0,3,2) - x(3,2) = 5
MCLinV(3,0,2):  - x(0,2) - v(3,0,2) + x(3,2) = 7
MCLin1(0,3,2):  u(0,3,2) >= -0
MCLin2(0,3,2):  -51 y(3,0,2) - u(0,3,2) <= -0
MCLin3(0,3,2):  30 y(3,0,2) + v(0,3,2) - u(0,3,2) <= 30
MCLin4(0,3,2):  30 y(3,0,2) - u(0,3,2) >= -0
MCLin5(0,3,2):  -51 y(3,0,2) + v(0,3,2) - u(0,3,2) >= -51
MCLin6(3,0,2):  u(3,0,2) >= -0
MCLin7(3,0,2):  -42 y(0,3,2) - u(3,0,2) <= -0
MCLin8(3,0,2):  39 y(0,3,2) + v(3,0,2) - u(3,0,2) <= 39
MCLin9(3,0,2):  39 y(0,3,2) - u(3,0,2) >= -0
MCLin10(3,0,2):  -42 y(0,3,2) + v(3,0,2) - u(3,0,2) >= -42
MCLinV(1,2,0):  x(1,0) - v(1,2,0) - x(2,0) = 3
MCLinV(2,1,0):  - x(1,0) - v(2,1,0) + x(2,0) = 8
MCLin1(1,2,0):  u(1,2,0) >= -0
MCLin2(1,2,0):  -48 y(2,1,0) - u(1,2,0) <= -0
MCLin3(1,2,0):  33 y(2,1,0) + v(1,2,0) - u(1,2,0) <= 33
MCLin4(1,2,0):  33 y(2,1,0) - u(1,2,0) >= -0
MCLin5(1,2,0):  -48 y(2,1,0) + v(1,2,0) - u(1,2,0) >= -48
MCLin6(2,1,0):  u(2,1,0) >= -0
MCLin7(2,1,0):  -44 y(1,2,0) - u(2,1,0) <= -0
MCLin8(2,1,0):  37 y(1,2,0) + v(2,1,0) - u(2,1,0) <= 37
MCLin9(2,1,0):  37 y(1,2,0) - u(2,1,0) >= -0
MCLin10(2,1,0):  -44 y(1,2,0) + v(2,1,0) - u(2,1,0) >= -44
MCLinV(1,2,1):  x(1,1) - v(1,2,1) - x(2,1) = 3
MCLinV(2,1,1):  - x(1,1) - v(2,1,1) + x(2,1) = 7
MCLin1(1,2,1):  u(1,2,1) >= -0
MCLin2(1,2,1):  -43 y(2,1,1) - u(1,2,1) <= -0
MCLin3(1,2,1):  38 y(2,1,1) + v(1,2,1) - u(1,2,1) <= 38
MCLin4(1,2,1):  38 y(2,1,1) - u(1,2,1) >= -0
MCLin5(1,2,1):  -43 y(2,1,1) + v(1,2,1) - u(1,2,1) >= -43
MCLin6(2,1,1):  u(2,1,1) >= -0
MCLin7(2,1,1):  -48 y(1,2,1) - u(2,1,1) <= -0
MCLin8(2,1,1):  33 y(1,2,1) + v(2,1,1) - u(2,1,1) <= 33
MCLin9(2,1,1):  33 y(1,2,1) - u(2,1,1) >= -0
MCLin10(2,1,1):  -48 y(1,2,1) + v(2,1,1) - u(2,1,1) >= -48
MCLinV(1,2,2):  x(1,2) - v(1,2,2) - x(2,2) = 3
MCLinV(2,1,2):  - x(1,2) - v(2,1,2) + x(2,2) = 3
MCLin1(1,2,2):  u(1,2,2) >= -0
MCLin2(1,2,2):  -39 y(2,1,2) - u(1,2,2) <= -0
MCLin3(1,2,2):  42 y(2,1,2) + v(1,2,2) - u(1,2,2) <= 42
MCLin4(1,2,2):  42 y(2,1,2) - u(1,2,2) >= -0
MCLin5(1,2,2):  -39 y(2,1,2) + v(1,2,2) - u(1,2,2) >= -39
MCLin6(2,1,2):  u(2,1,2) >= -0
MCLin7(2,1,2):  -48 y(1,2,2) - u(2,1,2) <= -0
MCLin8(2,1,2):  33 y(1,2,2) + v(2,1,2) - u(2,1,2) <= 33
MCLin9(2,1,2):  33 y(1,2,2) - u(2,1,2) >= -0
MCLin10(2,1,2):  -48 y(1,2,2) + v(2,1,2) - u(2,1,2) >= -48
MCLinV(1,3,0):  x(1,0) - v(1,3,0) - x(3,0) = 4
MCLinV(3,1,0):  - x(1,0) - v(3,1,0) + x(3,0) = 8
MCLin1(1,3,0):  u(1,3,0) >= -0
MCLin2(1,3,0):  -46 y(3,1,0) - u(1,3,0) <= -0
MCLin3(1,3,0):  32 y(3,1,0) + v(1,3,0) - u(1,3,0) <= 32
MCLin4(1,3,0):  32 y(3,1,0) - u(1,3,0) >= -0
MCLin5(1,3,0):  -46 y(3,1,0) + v(1,3,0) - u(1,3,0) >= -46
MCLin6(3,1,0):  u(3,1,0) >= -0
MCLin7(3,1,0):  -44 y(1,3,0) - u(3,1,0) <= -0
MCLin8(3,1,0):  34 y(1,3,0) + v(3,1,0) - u(3,1,0) <= 34
MCLin9(3,1,0):  34 y(1,3,0) - u(3,1,0) >= -0
MCLin10(3,1,0):  -44 y(1,3,0) + v(3,1,0) - u(3,1,0) >= -44
MCLinV(1,3,1):  x(1,1) - v(1,3,1) - x(3,1) = 3
MCLinV(3,1,1):  - x(1,1) - v(3,1,1) + x(3,1) = 7
MCLin1(1,3,1):  u(1,3,1) >= -0
MCLin2(1,3,1):  -46 y(3,1,1) - u(1,3,1) <= -0
MCLin3(1,3,1):  32 y(3,1,1) + v(1,3,1) - u(1,3,1) <= 32
MCLin4(1,3,1):  32 y(3,1,1) - u(1,3,1) >= -0
MCLin5(1,3,1):  -46 y(3,1,1) + v(1,3,1) - u(1,3,1) >= -46
MCLin6(3,1,1):  u(3,1,1) >= -0
MCLin7(3,1,1):  -42 y(1,3,1) - u(3,1,1) <= -0
MCLin8(3,1,1):  36 y(1,3,1) + v(3,1,1) - u(3,1,1) <= 36
MCLin9(3,1,1):  36 y(1,3,1) - u(3,1,1) >= -0
MCLin10(3,1,1):  -42 y(1,3,1) + v(3,1,1) - u(3,1,1) >= -42
MCLinV(1,3,2):  x(1,2) - v(1,3,2) - x(3,2) = 5
MCLinV(3,1,2):  - x(1,2) - v(3,1,2) + x(3,2) = 3
MCLin1(1,3,2):  u(1,3,2) >= -0
MCLin2(1,3,2):  -36 y(3,1,2) - u(1,3,2) <= -0
MCLin3(1,3,2):  42 y(3,1,2) + v(1,3,2) - u(1,3,2) <= 42
MCLin4(1,3,2):  42 y(3,1,2) - u(1,3,2) >= -0
MCLin5(1,3,2):  -36 y(3,1,2) + v(1,3,2) - u(1,3,2) >= -36
MCLin6(3,1,2):  u(3,1,2) >= -0
MCLin7(3,1,2):  -50 y(1,3,2) - u(3,1,2) <= -0
MCLin8(3,1,2):  28 y(1,3,2) + v(3,1,2) - u(3,1,2) <= 28
MCLin9(3,1,2):  28 y(1,3,2) - u(3,1,2) >= -0
MCLin10(3,1,2):  -50 y(1,3,2) + v(3,1,2) - u(3,1,2) >= -50
MCLinV(2,3,0):  x(2,0) - v(2,3,0) - x(3,0) = 4
MCLinV(3,2,0):  - x(2,0) - v(3,2,0) + x(3,0) = 3
MCLin1(2,3,0):  u(2,3,0) >= -0
MCLin2(2,3,0):  -46 y(3,2,0) - u(2,3,0) <= -0
MCLin3(2,3,0):  41 y(3,2,0) + v(2,3,0) - u(2,3,0) <= 41
MCLin4(2,3,0):  41 y(3,2,0) - u(2,3,0) >= -0
MCLin5(2,3,0):  -46 y(3,2,0) + v(2,3,0) - u(2,3,0) >= -46
MCLin6(3,2,0):  u(3,2,0) >= -0
MCLin7(3,2,0):  -48 y(2,3,0) - u(3,2,0) <= -0
MCLin8(3,2,0):  39 y(2,3,0) + v(3,2,0) - u(3,2,0) <= 39
MCLin9(3,2,0):  39 y(2,3,0) - u(3,2,0) >= -0
MCLin10(3,2,0):  -48 y(2,3,0) + v(3,2,0) - u(3,2,0) >= -48
MCLinV(2,3,1):  x(2,1) - v(2,3,1) - x(3,1) = 3
MCLinV(3,2,1):  - x(2,1) - v(3,2,1) + x(3,1) = 3
MCLin1(2,3,1):  u(2,3,1) >= -0
MCLin2(2,3,1):  -51 y(3,2,1) - u(2,3,1) <= -0
MCLin3(2,3,1):  36 y(3,2,1) + v(2,3,1) - u(2,3,1) <= 36
MCLin4(2,3,1):  36 y(3,2,1) - u(2,3,1) >= -0
MCLin5(2,3,1):  -51 y(3,2,1) + v(2,3,1) - u(2,3,1) >= -51
MCLin6(3,2,1):  u(3,2,1) >= -0
MCLin7(3,2,1):  -42 y(2,3,1) - u(3,2,1) <= -0
MCLin8(3,2,1):  45 y(2,3,1) + v(3,2,1) - u(3,2,1) <= 45
MCLin9(3,2,1):  45 y(2,3,1) - u(3,2,1) >= -0
MCLin10(3,2,1):  -42 y(2,3,1) + v(3,2,1) - u(3,2,1) >= -42
MCLinV(2,3,2):  x(2,2) - v(2,3,2) - x(3,2) = 5
MCLinV(3,2,2):  - x(2,2) - v(3,2,2) + x(3,2) = 3
MCLin1(2,3,2):  u(2,3,2) >= -0
MCLin2(2,3,2):  -45 y(3,2,2) - u(2,3,2) <= -0
MCLin3(2,3,2):  42 y(3,2,2) + v(2,3,2) - u(2,3,2) <= 42
MCLin4(2,3,2):  42 y(3,2,2) - u(2,3,2) >= -0
MCLin5(2,3,2):  -45 y(3,2,2) + v(2,3,2) - u(2,3,2) >= -45
MCLin6(3,2,2):  u(3,2,2) >= -0
MCLin7(3,2,2):  -50 y(2,3,2) - u(3,2,2) <= -0
MCLin8(3,2,2):  37 y(2,3,2) + v(3,2,2) - u(3,2,2) <= 37
MCLin9(3,2,2):  37 y(2,3,2) - u(3,2,2) >= -0
MCLin10(3,2,2):  -50 y(2,3,2) + v(3,2,2) - u(3,2,2) >= -50
makespan(0):  C - x(0,0) >= 4
makespan(1):  C - x(1,2) >= 3
makespan(2):  C - x(2,2) >= 3
makespan(3):  C - x(3,1) >= 3
cut_clique_0(0123,0):  0.25000 x(1,0) + 0.12500 x(3,0) >= 1
cut_clique_0(123,0):  0.25000 x(1,0) + 0.12500 x(3,0) >= 1
cut_clique_0(012,0):  0.33333 x(1,0) + 0.12500 x(2,0) >= 1
cut_clique_0(013,0):  0.25000 x(1,0) + 0.12500 x(3,0) >= 1
cut_clique_0(023,0):  0.25000 x(2,0) + 0.33333 x(3,0) >= 1
cut_clique_0(0123,1):  0.01817 x(0,1) + 0.04664 x(1,1) + 0.01999 x(3,1) >= 1
cut_clique_0(012,1):  0.02752 x(0,1) + 0.07339 x(1,1) >= 1
cut_clique_0(013,1):  0.01817 x(0,1) + 0.04664 x(1,1) + 0.01999 x(3,1) >= 1
cut_clique_0(023,1):  0.02899 x(0,1) + 0.07246 x(3,1) >= 1
cut_clique_0(123,1):  0.05556 x(1,1) + 0.03704 x(3,1) >= 1
cut_clique_0(0123,2):  0.04762 x(0,2) + 0.14286 x(3,2) >= 1
cut_clique_0(023,2):  0.04762 x(0,2) + 0.14286 x(3,2) >= 1
cut_clique_0(013,2):  0.04762 x(0,2) + 0.14286 x(3,2) >= 1
cut_clique_1(0123,0):  0.11765 x(1,0) + 0.04412 x(2,0) + 0.05882 x(3,0) >= 1
cut_clique_1(123,0):  0.11765 x(1,0) + 0.04412 x(2,0) + 0.05882 x(3,0) >= 1
cut_clique_0:  0.05128 x(1,0) + 0.01972 x(3,0) + 0.01099 x(0,1) + 0.02761 x(1,1) + 0.01183 x(2,1) + 0.01183 x(3,1) >= 1
cut_clique_1:  0.04887 x(1,0) + 0.01880 x(3,0) + 0.01128 x(0,1) + 0.03008 x(1,1) + 0.01128 x(2,1) + 0.01128 x(3,1) >= 1
Bounds
 0 <= C <= 54
 11 <= x(0,0) <= 50
 0 <= y(0,1,0) <= 1
 0 <= y(1,0,0) <= 1
 -33 <= v(0,1,0) <= 42
 -54 <= v(1,0,0) <= 21
 -540 <= u(0,1,0)
 -540 <= u(1,0,0)
 0 <= y(0,2,0) <= 1
 0 <= y(2,0,0) <= 1
 -37 <= v(0,2,0) <= 47
 -54 <= v(2,0,0) <= 30
 -540 <= u(0,2,0)
 -540 <= u(2,0,0)
 0 <= y(0,3,0) <= 1
 0 <= y(3,0,0) <= 1
 -35 <= v(0,3,0) <= 46
 -54 <= v(3,0,0) <= 27
 -540 <= u(0,3,0)
 -540 <= u(3,0,0)
 0 <= x(1,0) <= 36
 0 <= y(1,2,0) <= 1
 0 <= y(2,1,0) <= 1
 -48 <= v(1,2,0) <= 33
 -44 <= v(2,1,0) <= 37
 -540 <= u(1,2,0)
 -540 <= u(2,1,0)
 0 <= y(1,3,0) <= 1
 0 <= y(3,1,0) <= 1
 -46 <= v(1,3,0) <= 32
 -44 <= v(3,1,0) <= 34
 -540 <= u(1,3,0)
 -540 <= u(3,1,0)
 0 <= x(2,0) <= 45
 0 <= y(2,3,0) <= 1
 0 <= y(3,2,0) <= 1
 -46 <= v(2,3,0) <= 41
 -48 <= v(3,2,0) <= 39
 -540 <= u(2,3,0)
 -540 <= u(3,2,0)
 0 <= x(3,0) <= 42
 7 <= x(0,1) <= 46
 0 <= y(0,1,1) <= 1
 0 <= y(1,0,1) <= 1
 -44 <= v(0,1,1) <= 31
 -42 <= v(1,0,1) <= 33
 -540 <= u(0,1,1)
 -540 <= u(1,0,1)
 0 <= y(0,2,1) <= 1
 0 <= y(2,0,1) <= 1
 -44 <= v(0,2,1) <= 40
 -47 <= v(2,0,1) <= 37
 -540 <= u(0,2,1)
 -540 <= u(2,0,1)
 0 <= y(0,3,1) <= 1
 0 <= y(3,0,1) <= 1
 -47 <= v(0,3,1) <= 34
 -41 <= v(3,0,1) <= 40
 -540 <= u(0,3,1)
 -540 <= u(3,0,1)
 8 <= x(1,1) <= 44
 0 <= y(1,2,1) <= 1
 0 <= y(2,1,1) <= 1
 -43 <= v(1,2,1) <= 38
 -48 <= v(2,1,1) <= 33
 -540 <= u(1,2,1)
 -540 <= u(2,1,1)
 0 <= y(1,3,1) <= 1
 0 <= y(3,1,1) <= 1
 -46 <= v(1,3,1) <= 32
 -42 <= v(3,1,1) <= 36
 -540 <= u(1,3,1)
 -540 <= u(3,1,1)
 3 <= x(2,1) <= 48
 0 <= y(2,3,1) <= 1
 0 <= y(3,2,1) <= 1
 -51 <= v(2,3,1) <= 36
 -42 <= v(3,2,1) <= 45
 -540 <= u(2,3,1)
 -540 <= u(3,2,1)
 9 <= x(3,1) <= 51
 0 <= x(0,2) <= 39
 0 <= y(0,1,2) <= 1
 0 <= y(1,0,2) <= 1
 -54 <= v(0,1,2) <= 21
 -31 <= v(1,0,2) <= 44
 -540 <= u(0,1,2)
 -540 <= u(1,0,2)
 0 <= y(0,2,2) <= 1
 0 <= y(2,0,2) <= 1
 -54 <= v(0,2,2) <= 30
 -40 <= v(2,0,2) <= 44
 -540 <= u(0,2,2)
 -540 <= u(2,0,2)
 0 <= y(0,3,2) <= 1
 0 <= y(3,0,2) <= 1
 -51 <= v(0,3,2) <= 30
 -42 <= v(3,0,2) <= 39
 -540 <= u(0,3,2)
 -540 <= u(3,0,2)
 15 <= x(1,2) <= 51
 0 <= y(1,2,2) <= 1
 0 <= y(2,1,2) <= 1
 -39 <= v(1,2,2) <= 42
 -48 <= v(2,1,2) <= 33
 -540 <= u(1,2,2)
 -540 <= u(2,1,2)
 0 <= y(1,3,2) <= 1
 0 <= y(3,1,2) <= 1
 -36 <= v(1,3,2) <= 42
 -50 <= v(3,1,2) <= 28
 -540 <= u(1,3,2)
 -540 <= u(3,1,2)
 6 <= x(2,2) <= 51
 0 <= y(2,3,2) <= 1
 0 <= y(3,2,2) <= 1
 -45 <= v(2,3,2) <= 42
 -50 <= v(3,2,2) <= 37
 -540 <= u(2,3,2)
 -540 <= u(3,2,2)
 4 <= x(3,2) <= 46
Integers
C x(0,0) y(0,1,0) y(1,0,0) v(0,1,0) v(1,0,0) u(0,1,0) u(1,0,0) y(0,2,0) y(2,0,0) 
v(0,2,0) v(2,0,0) u(0,2,0) u(2,0,0) y(0,3,0) y(3,0,0) v(0,3,0) v(3,0,0) u(0,3,0) u(3,0,0) 
x(1,0) y(1,2,0) y(2,1,0) v(1,2,0) v(2,1,0) u(1,2,0) u(2,1,0) y(1,3,0) y(3,1,0) v(1,3,0) 
v(3,1,0) u(1,3,0) u(3,1,0) x(2,0) y(2,3,0) y(3,2,0) v(2,3,0) v(3,2,0) u(2,3,0) u(3,2,0) 
x(3,0) x(0,1) y(0,1,1) y(1,0,1) v(0,1,1) v(1,0,1) u(0,1,1) u(1,0,1) y(0,2,1) y(2,0,1) 
v(0,2,1) v(2,0,1) u(0,2,1) u(2,0,1) y(0,3,1) y(3,0,1) v(0,3,1) v(3,0,1) u(0,3,1) u(3,0,1) 
x(1,1) y(1,2,1) y(2,1,1) v(1,2,1) v(2,1,1) u(1,2,1) u(2,1,1) y(1,3,1) y(3,1,1) v(1,3,1) 
v(3,1,1) u(1,3,1) u(3,1,1) x(2,1) y(2,3,1) y(3,2,1) v(2,3,1) v(3,2,1) u(2,3,1) u(3,2,1) 
x(3,1) x(0,2) y(0,1,2) y(1,0,2) v(0,1,2) v(1,0,2) u(0,1,2) u(1,0,2) y(0,2,2) y(2,0,2) 
v(0,2,2) v(2,0,2) u(0,2,2) u(2,0,2) y(0,3,2) y(3,0,2) v(0,3,2) v(3,0,2) u(0,3,2) u(3,0,2) 
x(1,2) y(1,2,2) y(2,1,2) v(1,2,2) v(2,1,2) u(1,2,2) u(2,1,2) y(1,3,2) y(3,1,2) v(1,3,2) 
v(3,1,2) u(1,3,2) u(3,1,2) x(2,2) y(2,3,2) y(3,2,2) v(2,3,2) v(3,2,2) u(2,3,2) u(3,2,2) 
x(3,2) 
End
